language Essence 1.3

letting blksize_delta be
        function(1 --> 1, 2 --> 2, 3 --> 2, 4 --> 2, 5 --> 1, 6 --> 3, 7 --> 2, 8 --> 2, 9 --> 3, 10 --> 3, 11 --> 1,
                 12 --> 3, 13 --> 2, 14 --> 1, 15 --> 1, 16 --> 2, 17 --> 1, 18 --> 3, 19 --> 3, 20 --> 3, 21 --> 1,
                 22 --> 3, 23 --> 1, 24 --> 3, 25 --> 2, 26 --> 3, 27 --> 2, 28 --> 3, 29 --> 1, 30 --> 3, 31 --> 2,
                 32 --> 1, 33 --> 2, 34 --> 1, 35 --> 3, 36 --> 3, 37 --> 3, 38 --> 3, 39 --> 2, 40 --> 3, 41 --> 2,
                 42 --> 3, 43 --> 2, 44 --> 1, 45 --> 2, 46 --> 2, 47 --> 3, 48 --> 1, 49 --> 2, 50 --> 1, 51 --> 1,
                 52 --> 3, 53 --> 3, 54 --> 3, 55 --> 1, 56 --> 3, 57 --> 3, 58 --> 2, 59 --> 3, 60 --> 2, 61 --> 2,
                 62 --> 3, 63 --> 1, 64 --> 3, 65 --> 2, 66 --> 3, 67 --> 1, 68 --> 1)
letting maxcars be
        function(1 --> 4, 2 --> 6, 3 --> 2, 4 --> 3, 5 --> 3, 6 --> 6, 7 --> 5, 8 --> 5, 9 --> 5, 10 --> 4, 11 --> 5,
                 12 --> 2, 13 --> 5, 14 --> 2, 15 --> 6, 16 --> 6, 17 --> 2, 18 --> 4, 19 --> 3, 20 --> 5, 21 --> 3,
                 22 --> 6, 23 --> 6, 24 --> 4, 25 --> 6, 26 --> 6, 27 --> 3, 28 --> 3, 29 --> 6, 30 --> 5, 31 --> 6,
                 32 --> 3, 33 --> 2, 34 --> 5, 35 --> 6, 36 --> 6, 37 --> 5, 38 --> 6, 39 --> 2, 40 --> 4, 41 --> 3,
                 42 --> 5, 43 --> 4, 44 --> 3, 45 --> 5, 46 --> 5, 47 --> 5, 48 --> 3, 49 --> 3, 50 --> 2, 51 --> 5,
                 52 --> 6, 53 --> 2, 54 --> 4, 55 --> 3, 56 --> 3, 57 --> 4, 58 --> 2, 59 --> 2, 60 --> 5, 61 --> 4,
                 62 --> 3, 63 --> 4, 64 --> 2, 65 --> 4, 66 --> 4, 67 --> 3, 68 --> 3)
letting n_cars be 58
letting n_classes be 4
letting n_options be 68
letting quantity be function(1 --> 16, 2 --> 14, 3 --> 14, 4 --> 14)
letting usage be
        relation((1, 4), (1, 7), (1, 8), (1, 12), (1, 13), (1, 16), (1, 18), (1, 21), (1, 22), (1, 23), (1, 24),
                 (1, 25), (1, 27), (1, 28), (1, 29), (1, 34), (1, 36), (1, 37), (1, 38), (1, 40), (1, 42), (1, 44),
                 (1, 47), (1, 48), (1, 49), (1, 52), (1, 55), (1, 58), (1, 59), (1, 60), (1, 61), (1, 64), (1, 65),
                 (1, 68), (2, 2), (2, 4), (2, 5), (2, 8), (2, 14), (2, 15), (2, 18), (2, 19), (2, 22), (2, 23), (2, 26),
                 (2, 27), (2, 30), (2, 31), (2, 32), (2, 33), (2, 34), (2, 38), (2, 39), (2, 40), (2, 41), (2, 46),
                 (2, 47), (2, 48), (2, 49), (2, 51), (2, 56), (2, 57), (2, 60), (2, 62), (2, 67), (2, 68), (3, 1),
                 (3, 3), (3, 4), (3, 5), (3, 6), (3, 7), (3, 9), (3, 14), (3, 18), (3, 19), (3, 20), (3, 21), (3, 22),
                 (3, 23), (3, 24), (3, 26), (3, 28), (3, 29), (3, 30), (3, 31), (3, 32), (3, 33), (3, 34), (3, 35),
                 (3, 36), (3, 37), (3, 38), (3, 39), (3, 40), (3, 41), (3, 42), (3, 43), (3, 44), (3, 45), (3, 46),
                 (3, 47), (3, 48), (3, 49), (3, 50), (3, 51), (3, 52), (3, 53), (3, 54), (3, 55), (3, 56), (3, 57),
                 (3, 58), (3, 59), (3, 60), (3, 61), (3, 62), (3, 63), (3, 64), (3, 65), (3, 66), (3, 67), (3, 68),
                 (4, 1), (4, 2), (4, 3), (4, 4), (4, 5), (4, 6), (4, 7), (4, 8), (4, 9), (4, 10), (4, 11), (4, 12),
                 (4, 13), (4, 14), (4, 15), (4, 16), (4, 17), (4, 18), (4, 19), (4, 20), (4, 21), (4, 22), (4, 23),
                 (4, 24), (4, 25), (4, 26), (4, 27), (4, 28), (4, 29), (4, 30), (4, 31), (4, 32), (4, 33), (4, 34),
                 (4, 35), (4, 36), (4, 37), (4, 38), (4, 39), (4, 40), (4, 41), (4, 42), (4, 43), (4, 44), (4, 45),
                 (4, 46), (4, 47), (4, 48), (4, 49), (4, 50), (4, 51), (4, 52), (4, 53), (4, 54), (4, 55), (4, 56),
                 (4, 57), (4, 58), (4, 59), (4, 60), (4, 61), (4, 62), (4, 63), (4, 64), (4, 65), (4, 66), (4, 67),
                 (4, 68))
$ Visualisation for usage
$  1  4
$  1  7
$  1  8
$  1 12
$  1 13
$  1 16
$  1 18
$  1 21
$  1 22
$  1 23
$  1 24
$  1 25
$  1 27
$  1 28
$  1 29
$  1 34
$  1 36
$  1 37
$  1 38
$  1 40
$  1 42
$  1 44
$  1 47
$  1 48
$  1 49
$  1 52
$  1 55
$  1 58
$  1 59
$  1 60
$  1 61
$  1 64
$  1 65
$  1 68
$  2  2
$  2  4
$  2  5
$  2  8
$  2 14
$  2 15
$  2 18
$  2 19
$  2 22
$  2 23
$  2 26
$  2 27
$  2 30
$  2 31
$  2 32
$  2 33
$  2 34
$  2 38
$  2 39
$  2 40
$  2 41
$  2 46
$  2 47
$  2 48
$  2 49
$  2 51
$  2 56
$  2 57
$  2 60
$  2 62
$  2 67
$  2 68
$  3  1
$  3  3
$  3  4
$  3  5
$  3  6
$  3  7
$  3  9
$  3 14
$  3 18
$  3 19
$  3 20
$  3 21
$  3 22
$  3 23
$  3 24
$  3 26
$  3 28
$  3 29
$  3 30
$  3 31
$  3 32
$  3 33
$  3 34
$  3 35
$  3 36
$  3 37
$  3 38
$  3 39
$  3 40
$  3 41
$  3 42
$  3 43
$  3 44
$  3 45
$  3 46
$  3 47
$  3 48
$  3 49
$  3 50
$  3 51
$  3 52
$  3 53
$  3 54
$  3 55
$  3 56
$  3 57
$  3 58
$  3 59
$  3 60
$  3 61
$  3 62
$  3 63
$  3 64
$  3 65
$  3 66
$  3 67
$  3 68
$  4  1
$  4  2
$  4  3
$  4  4
$  4  5
$  4  6
$  4  7
$  4  8
$  4  9
$  4 10
$  4 11
$  4 12
$  4 13
$  4 14
$  4 15
$  4 16
$  4 17
$  4 18
$  4 19
$  4 20
$  4 21
$  4 22
$  4 23
$  4 24
$  4 25
$  4 26
$  4 27
$  4 28
$  4 29
$  4 30
$  4 31
$  4 32
$  4 33
$  4 34
$  4 35
$  4 36
$  4 37
$  4 38
$  4 39
$  4 40
$  4 41
$  4 42
$  4 43
$  4 44
$  4 45
$  4 46
$  4 47
$  4 48
$  4 49
$  4 50
$  4 51
$  4 52
$  4 53
$  4 54
$  4 55
$  4 56
$  4 57
$  4 58
$  4 59
$  4 60
$  4 61
$  4 62
$  4 63
$  4 64
$  4 65
$  4 66
$  4 67
$  4 68

